c 
c G(k,n,p) graph
c graph gen seed     : 512
c number of vertices : 25
c max number of edges: 500
c number of classes  : 2
c edge density       : 0.400000
c edge probability   : 0.800000
c data structure     : sparse
c
c           Graph Stats
c number of vertices  : 25
c nonisolated vertices: 25
c number of edges     : 116
c edge density        : 0.386667
c max degree          : 12
c avg degree          : 9.28
c min degree          : 6
p col 25 116
e 1 2
e 1 3
e 1 5
e 1 8
e 1 9
e 1 10
e 1 14
e 1 16
e 1 17
e 1 18
e 1 19
e 1 21
e 1 24
e 1 25
e 2 3
e 2 4
e 2 5
e 2 6
e 2 7
e 2 8
e 2 11
e 2 12
e 2 13
e 2 15
e 2 17
e 2 19
e 2 20
e 2 22
e 2 23
e 3 4
e 3 7
e 3 9
e 3 10
e 3 14
e 3 15
e 3 16
e 3 17
e 3 18
e 3 19
e 3 20
e 3 21
e 3 24
e 3 25
e 4 5
e 4 6
e 4 7
e 4 8
e 4 11
e 4 12
e 4 13
e 4 14
e 4 15
e 4 17
e 4 18
e 4 19
e 4 20
e 4 22
e 4 23
e 5 6
e 5 7
e 5 8
e 5 9
e 5 11
e 5 12
e 5 13
e 5 15
e 5 17
e 5 18
e 5 20
e 5 22
e 5 23
e 5 25
e 6 7
e 6 8
e 6 9
e 6 10
e 6 11
e 6 12
e 6 13
e 6 15
e 6 17
e 6 20
e 6 22
e 6 23
e 7 8
e 7 10
e 7 11
e 7 12
e 7 13
e 7 15
e 7 17
e 7 20
e 7 21
e 7 22
e 7 23
e 7 24
e 7 25
e 8 11
e 8 12
e 8 13
e 8 15
e 8 17
e 8 20
e 8 22
e 8 23
e 9 10
e 9 14
e 9 16
e 9 18
e 9 19
e 9 21
e 9 24
e 9 25
e 10 14
e 10 16
e 10 17
e 10 18
e 10 19
e 10 21
e 10 22
e 10 24
e 10 25
e 11 12
e 11 13
e 11 15
e 11 16
e 11 17
e 11 19
e 11 20
e 11 22
e 11 23
e 12 13
e 12 15
e 12 16
e 12 17
e 12 20
e 12 22
e 12 23
e 13 15
e 13 17
e 13 20
e 13 21
e 13 22
e 13 23
e 14 16
e 14 18
e 14 19
e 14 21
e 14 23
e 14 24
e 14 25
e 15 16
e 15 17
e 15 20
e 15 22
e 15 23
e 15 24
e 16 17
e 16 18
e 16 19
e 16 21
e 16 23
e 16 24
e 16 25
e 17 20
e 17 22
e 17 23
e 17 25
e 18 19
e 18 20
e 18 21
e 18 24
e 18 25
e 19 21
e 19 23
e 19 24
e 19 25
e 20 22
e 20 23
e 21 24
e 21 25
e 22 23
e 22 25
e 24 25
